100	5
25	200
10
7
13
19
26
3
5
9
16
16
12
19
23
20
8
19
2
12
17
9
11
18
29
3
6
17
16
16
9
21
27
23
11
14
8
5
8
16
31
9
5
5
7
18
16
1
27
36
30
13
10
9
14
18
2
6
7
18
28
3
13
19
10
9
20
25
25
36
6
5
15
25
9
8
18
13
14
3
23
6
26
16
11
7
41
35
26
9
15
3
1
2
22
27
20
11
12
10
9
17
35	35	0	230	0	0
41	49	15	204	10	1
35	17	18	202	10	1
55	45	54	187	10	2
55	20	138	169	10	2
15	30	20	199	10	1
25	30	76	131	10	2
20	50	21	170	10	2
10	43	87	112	10	1
55	60	88	115	10	2
30	60	107	150	10	2
20	65	57	86	10	3
50	35	15	192	10	2
30	25	147	180	10	1
15	10	32	187	10	1
30	5	50	81	10	2
10	20	29	139	10	1
5	30	124	189	10	1
20	40	47	136	10	3
15	60	32	146	10	1
45	65	79	182	10	1
45	20	18	195	10	3
45	10	76	127	10	2
55	5	58	87	10	1
65	35	58	190	10	2
65	20	153	186	10	3
45	30	58	208	10	1
35	40	8	75	10	3
41	37	6	136	10	1
64	42	29	150	10	2
40	60	49	102	10	3
31	52	17	198	10	3
35	69	67	186	10	3
53	52	24	92	10	1
65	55	36	183	10	1
63	65	116	178	10	2
2	60	41	112	10	2
20	20	42	198	10	3
5	5	74	101	10	1
60	12	33	110	10	2
40	25	65	114	10	1
42	7	72	131	10	3
24	12	25	91	10	1
23	3	82	185	10	1
11	14	59	88	10	1
6	38	29	99	10	1
2	48	63	180	10	2
8	56	34	176	10	1
13	52	27	192	10	2
6	68	93	132	10	1
47	47	41	203	10	3
49	58	36	149	10	2
27	43	11	195	10	3
37	31	87	112	10	2
57	29	90	197	10	3
63	23	126	155	10	1
53	12	106	163	10	1
32	12	48	163	10	2
36	26	178	210	10	1
21	24	17	202	10	2
17	34	70	201	10	2
12	24	29	132	10	2
24	58	46	79	10	3
27	69	34	172	10	1
15	77	48	107	10	2
62	77	49	113	10	1
49	73	104	159	10	3
67	5	73	102	10	1
56	39	117	176	10	3
37	47	39	70	10	2
37	56	123	198	10	1
57	68	39	148	10	2
47	16	22	197	10	1
44	17	30	135	10	1
46	13	138	169	10	1
49	11	27	192	10	2
49	42	65	90	10	3
53	43	168	199	10	2
61	52	71	130	10	2
57	48	84	109	10	1
56	37	135	198	10	1
55	54	57	140	10	1
15	47	23	196	10	2
14	37	21	198	10	3
11	31	93	118	10	3
16	22	23	177	10	3
4	18	49	148	10	2
28	18	88	107	10	3
26	52	50	107	10	2
26	35	68	211	10	1
31	67	46	153	10	1
15	19	25	194	10	2
22	22	18	53	10	1
18	24	129	199	10	2
26	27	35	174	10	2
25	24	14	205	10	1
22	27	51	204	10	1
25	21	92	183	10	2
19	21	21	198	10	3
20	26	74	101	10	2
18	18	159	195	10	1
5	62	0	230	5	4
48	48	0	230	5	4
43	28	0	230	5	4
15	7	0	230	5	4
33	52	0	230	5	4
0	0	0	0	0	
0	0	0	0	0	
0	1	0	0	0	
0	0	1	0	0	
0	0	0	0	0	
0	0	1	0	0	
0	0	0	0	1	
0	0	0	0	0	
0	1	0	0	0	
0	0	0	0	1	
1	0	0	0	0	
0	0	1	0	0	
0	0	0	0	0	
0	0	0	0	0	
0	0	0	1	0	
0	0	0	0	0	
0	0	0	0	0	
0	0	0	0	1	
0	0	0	0	0	
0	0	0	0	0	
0	0	1	0	0	
0	0	1	0	0	
0	0	0	0	0	
0	1	0	0	0	
0	0	1	0	0	
0	0	0	0	0	
0	0	0	0	1	
0	0	0	0	0	
0	1	0	0	0	
0	0	0	0	1	
0	0	0	0	1	
0	0	0	0	1	
0	0	0	0	0	
0	0	0	0	0	
0	1	0	0	0	
1	0	0	0	0	
0	0	0	1	0	
0	0	0	0	0	
0	0	1	0	0	
0	0	0	0	0	
0	0	1	0	0	
0	0	0	0	0	
0	0	0	0	0	
0	0	0	0	0	
0	0	0	0	0	
1	0	0	0	0	
0	0	0	0	0	
1	0	0	0	0	
0	0	0	0	0	
0	1	0	0	0	
0	1	0	0	0	
0	0	0	0	1	
0	0	1	0	0	
0	0	1	0	0	
0	0	0	0	0	
0	0	0	0	0	
0	0	0	1	0	
0	0	0	0	0	
0	0	0	1	0	
0	0	0	0	1	
0	0	0	1	0	
0	0	0	0	1	
0	0	0	0	0	
1	0	0	0	0	
0	0	0	0	0	
0	1	0	0	0	
0	0	0	0	0	
0	1	0	0	0	
0	0	0	0	1	
0	0	0	0	0	
0	1	0	0	0	
0	0	0	0	0	
0	0	0	0	0	
0	0	0	0	0	
0	0	1	0	0	
0	1	0	0	0	
0	1	0	0	0	
0	1	0	0	0	
0	0	0	0	0	
0	0	0	0	0	
0	0	0	0	0	
1	0	0	0	0	
0	0	0	0	1	
0	0	0	1	0	
0	0	0	1	0	
0	0	0	1	0	
0	0	0	1	0	
0	0	0	0	1	
0	0	0	0	0	
0	0	0	0	0	
0	0	0	1	0	
0	0	0	0	0	
0	0	0	1	0	
0	0	1	0	0	
0	0	0	0	0	
0	0	0	0	0	
0	0	0	1	0	
0	0	0	1	0	
0	0	0	1	0	
0	0	0	0	0	
